92	0

0	3	2	3	4
2	5	5	6	7	9	14
2	5	5	6	7	9	14
5	6	10	12	13	15	16	17
8	7	20	21	22	23	24	32	33
6	2	12	13
1	7	8	10	11	15	16	17	18
6	2	19	31
5	3	12	13	17
4	2	19	31
5	2	12	13
9	5	26	28	29	30	34
1	2	19	31
9	6	21	22	23	24	32	33
8	6	21	22	23	24	32	33
9	3	21	23	33
4	6	21	22	23	24	32	33
10	6	21	22	23	24	32	33
1	7	20	21	22	23	24	32	33
7	5	26	28	29	30	34
4	2	34	36
2	2	25	37
1	2	25	37
4	5	26	28	29	30	34
1	6	26	27	28	29	30	34
2	3	35	36	43
7	5	38	39	40	42	44
9	7	47	48	49	50	52	56	60
7	4	39	40	42	44
7	4	39	40	42	44
10	3	35	36	43
9	2	35	43
10	4	39	40	42	44
4	2	35	43
1	5	38	39	40	42	44
9	3	48	50	56
10	6	41	45	46	49	52	60
10	8	54	55	57	58	61	62	64	65
2	7	47	48	49	50	52	56	60
1	6	41	45	46	49	52	60
2	4	47	48	50	56
9	8	54	55	57	58	61	62	64	65
6	3	48	50	56
9	8	54	55	57	58	61	62	64	65
5	7	51	53	54	55	57	58	65
3	3	48	50	56
3	7	51	53	54	55	57	58	65
1	8	51	53	54	55	57	58	59	65
9	4	61	63	66	68
5	8	54	55	57	58	61	62	64	65
5	4	61	63	66	68
8	6	61	62	63	64	66	68
4	6	61	62	63	64	66	68
10	8	67	69	71	72	74	75	77	78
10	8	67	69	71	72	74	75	77	78
9	3	63	66	68
4	3	63	66	68
10	8	67	69	71	72	74	75	77	78
5	6	61	62	63	64	66	68
9	4	61	63	66	68
10	7	69	70	73	76	78	80	82
9	8	67	69	71	72	74	75	77	78
7	4	67	69	74	78
9	8	67	69	71	72	74	75	77	78
9	9	67	68	69	71	72	74	75	77	78
6	8	67	69	71	72	74	75	77	78
2	5	70	73	76	80	82
6	4	73	76	80	82
7	3	79	81	83
7	3	79	81	83
7	4	79	80	81	82
5	4	73	76	80	82
5	3	79	81	83
9	3	79	81	83
10	3	79	81	83
7	1	84
8	4	79	80	81	82
7	3	79	81	83
10	1	87
3	1	83
7	1	85
6	1	84
2	1	84
2	2	85	86
2	1	87
10	1	88
6	1	88
4	1	89
10	1	90
6	1	91
5	1	92
0	0
